(set-info :source |printed by MathSAT|)
(declare-fun call__DRAGON_.ite34 () Int)
(declare-fun _R12_ () Bool)
(declare-fun _R9_ () Bool)
(declare-fun _R3_ () Bool)
(declare-fun call__DRAGON_.invalid () Int)
(declare-fun param_e06 () Bool)
(declare-fun call__DRAGON_.ite45 () Int)
(declare-fun call__DRAGON_.ite9 () Int)
(declare-fun call__DRAGON_.shared_dirty () Int)
(declare-fun call__DRAGON_.ite24 () Int)
(declare-fun call__DRAGON_.ite25 () Int)
(declare-fun call__DRAGON_.ite49 () Int)
(declare-fun call__DRAGON_.ite32 () Int)
(declare-fun call__DRAGON_.ite7 () Int)
(declare-fun call__DRAGON_.ite47 () Int)
(declare-fun call_First5.First () Int)
(declare-fun call__DRAGON_.ite33 () Int)
(declare-fun call__DRAGON_.ite29 () Int)
(declare-fun param_e09 () Bool)
(declare-fun call__DRAGON_.ite54 () Int)
(declare-fun call__DRAGON_.ite58 () Int)
(declare-fun param_e07 () Bool)
(declare-fun call__DRAGON_.ite44 () Int)
(declare-fun call__DRAGON_.ite19 () Int)
(declare-fun call__DRAGON_.g02 () Bool)
(declare-fun call_First3.flby () Int)
(declare-fun call__DRAGON_.ite27 () Int)
(declare-fun call__DRAGON_.ite60 () Int)
(declare-fun param_e02 () Bool)
(declare-fun call__DRAGON_.ite16 () Int)
(declare-fun _OK_ () Bool)
(declare-fun _R7_ () Bool)
(declare-fun param_init_invalid () Int)
(declare-fun call__DRAGON_.ite41 () Int)
(declare-fun call__DRAGON_.ite52 () Int)
(declare-fun call__DRAGON_.ite50 () Int)
(declare-fun env () Bool)
(declare-fun param_e11 () Bool)
(declare-fun param_e10 () Bool)
(declare-fun _R13_ () Bool)
(declare-fun _R10_ () Bool)
(declare-fun call__DRAGON_.ite48 () Int)
(declare-fun call__DRAGON_.g08 () Bool)
(declare-fun param_e03 () Bool)
(declare-fun invalid () Int)
(declare-fun call__DRAGON_.ite57 () Int)
(declare-fun call_Sofar.Sofar () Bool)
(declare-fun call__DRAGON_.ite10 () Int)
(declare-fun call_First4.flby () Int)
(declare-fun param_e01 () Bool)
(declare-fun call__DRAGON_.ite15 () Int)
(declare-fun call__DRAGON_.ite53 () Int)
(declare-fun call__DRAGON_.erreur () Bool)
(declare-fun call_First.First () Int)
(declare-fun call_First.flby () Int)
(declare-fun call__DRAGON_.ite51 () Int)
(declare-fun call__DRAGON_.g05 () Bool)
(declare-fun call__DRAGON_.ite23 () Int)
(declare-fun call_First4.First () Int)
(declare-fun param_e05 () Bool)
(declare-fun call__DRAGON_.flby5 () Int)
(declare-fun _R1_ () Bool)
(declare-fun call__DRAGON_.ite13 () Int)
(declare-fun call__DRAGON_.ite26 () Int)
(declare-fun param_e08 () Bool)
(declare-fun call__DRAGON_.ite28 () Int)
(declare-fun call__DRAGON_.exclusive () Int)
(declare-fun call__DRAGON_.ite14 () Int)
(declare-fun _R5_ () Bool)
(declare-fun call__DRAGON_.g04 () Bool)
(declare-fun call__DRAGON_.ite2 () Int)
(declare-fun call__DRAGON_.flby4 () Int)
(declare-fun dirty () Int)
(declare-fun call__DRAGON_.ite30 () Int)
(declare-fun call__DRAGON_.ite59 () Int)
(declare-fun call__DRAGON_.ite8 () Int)
(declare-fun call__DRAGON_.ite5 () Int)
(declare-fun call__DRAGON_.flby () Int)
(declare-fun call__DRAGON_.ite12 () Int)
(declare-fun call__DRAGON_.ite6 () Int)
(declare-fun call__DRAGON_.shared () Int)
(declare-fun call__DRAGON_.mem_init () Int)
(declare-fun call__DRAGON_.ite20 () Int)
(declare-fun call__DRAGON_.flby3 () Int)
(declare-fun call__DRAGON_.ite38 () Int)
(declare-fun call__DRAGON_.ite39 () Int)
(declare-fun param_e12 () Bool)
(declare-fun call__DRAGON_.g06 () Bool)
(declare-fun call_First5.flby () Int)
(declare-fun _R14_ () Bool)
(declare-fun _R11_ () Bool)
(declare-fun _R8_ () Bool)
(declare-fun call__DRAGON_.ite36 () Int)
(declare-fun call__DRAGON_.ite42 () Int)
(declare-fun _R2_ () Bool)
(declare-fun _R4_ () Bool)
(declare-fun call__DRAGON_.ite37 () Int)
(declare-fun call_Sofar.flby () Bool)
(declare-fun shared_dirty () Int)
(declare-fun call_First2.First () Int)
(declare-fun call__DRAGON_.ite22 () Int)
(declare-fun flby () Bool)
(declare-fun call__DRAGON_.flby2 () Int)
(declare-fun param_e04 () Bool)
(declare-fun exclusive () Int)
(declare-fun call__DRAGON_.ite4 () Int)
(declare-fun call__DRAGON_.ite11 () Int)
(declare-fun call__DRAGON_.ite56 () Int)
(declare-fun call_First3.First () Int)
(declare-fun call_First2.flby () Int)
(declare-fun call__DRAGON_.dirty () Int)
(declare-fun call__DRAGON_.ite18 () Int)
(declare-fun call__DRAGON_.ite21 () Int)
(declare-fun _R6_ () Bool)
(declare-fun call__DRAGON_.ite17 () Int)
(declare-fun call__DRAGON_.ite46 () Int)
(declare-fun call__DRAGON_.flby6 () Int)
(declare-fun call__DRAGON_.ite61 () Int)
(declare-fun call__DRAGON_.ite55 () Int)
(declare-fun call__DRAGON_.ite3 () Int)
(declare-fun shared () Int)
(declare-fun call__DRAGON_.ite35 () Int)
(declare-fun call__DRAGON_.ite43 () Int)
(declare-fun call_excludes12.excludes () Bool)
(declare-fun call__DRAGON_.ite () Bool)
(declare-fun erreur () Bool)
(declare-fun call__DRAGON_.ite40 () Int)
(declare-fun call__DRAGON_.ite31 () Int)
(define-fun .def_2129 () Bool (= call_First5.flby call_First5.First))
(define-fun .def_2127 () Bool (= call_First4.flby call_First4.First))
(define-fun .def_2125 () Bool (= call_First3.flby call_First3.First))
(define-fun .def_2123 () Bool (= call_First2.flby call_First2.First))
(define-fun .def_2121 () Bool (= call_First.flby call_First.First))
(define-fun .def_2119 () Bool (= call_Sofar.flby call_Sofar.Sofar))
(define-fun .def_1962 () Bool (not param_e02))
(define-fun .def_1944 () Bool (not param_e01))
(define-fun .def_2017 () Bool (and .def_1944 .def_1962))
(define-fun .def_1673 () Bool (not param_e03))
(define-fun .def_2018 () Bool (and .def_1673 .def_2017))
(define-fun .def_1656 () Bool (not param_e04))
(define-fun .def_2019 () Bool (and .def_1656 .def_2018))
(define-fun .def_1692 () Bool (not param_e05))
(define-fun .def_2020 () Bool (and .def_1692 .def_2019))
(define-fun .def_1710 () Bool (not param_e06))
(define-fun .def_2021 () Bool (and .def_1710 .def_2020))
(define-fun .def_1784 () Bool (not param_e07))
(define-fun .def_2022 () Bool (and .def_1784 .def_2021))
(define-fun .def_1864 () Bool (not param_e08))
(define-fun .def_2023 () Bool (and .def_1864 .def_2022))
(define-fun .def_1535 () Bool (not param_e09))
(define-fun .def_2024 () Bool (and .def_1535 .def_2023))
(define-fun .def_1543 () Bool (not param_e10))
(define-fun .def_2025 () Bool (and .def_1543 .def_2024))
(define-fun .def_1550 () Bool (not param_e11))
(define-fun .def_2026 () Bool (and .def_1550 .def_2025))
(define-fun .def_1557 () Bool (not param_e12))
(define-fun .def_2104 () Bool (and .def_1557 .def_2026))
(define-fun .def_2093 () Bool (and param_e01 .def_1962))
(define-fun .def_2094 () Bool (and .def_1673 .def_2093))
(define-fun .def_2095 () Bool (and .def_1656 .def_2094))
(define-fun .def_2096 () Bool (and .def_1692 .def_2095))
(define-fun .def_2097 () Bool (and .def_1710 .def_2096))
(define-fun .def_2098 () Bool (and .def_1784 .def_2097))
(define-fun .def_2099 () Bool (and .def_1864 .def_2098))
(define-fun .def_2100 () Bool (and .def_1535 .def_2099))
(define-fun .def_2101 () Bool (and .def_1543 .def_2100))
(define-fun .def_2102 () Bool (and .def_1550 .def_2101))
(define-fun .def_2103 () Bool (and .def_1557 .def_2102))
(define-fun .def_2105 () Bool (or .def_2103 .def_2104))
(define-fun .def_2082 () Bool (and .def_1944 param_e02))
(define-fun .def_2083 () Bool (and .def_1673 .def_2082))
(define-fun .def_2084 () Bool (and .def_1656 .def_2083))
(define-fun .def_2085 () Bool (and .def_1692 .def_2084))
(define-fun .def_2086 () Bool (and .def_1710 .def_2085))
(define-fun .def_2087 () Bool (and .def_1784 .def_2086))
(define-fun .def_2088 () Bool (and .def_1864 .def_2087))
(define-fun .def_2089 () Bool (and .def_1535 .def_2088))
(define-fun .def_2090 () Bool (and .def_1543 .def_2089))
(define-fun .def_2091 () Bool (and .def_1550 .def_2090))
(define-fun .def_2092 () Bool (and .def_1557 .def_2091))
(define-fun .def_2106 () Bool (or .def_2092 .def_2105))
(define-fun .def_2072 () Bool (and param_e03 .def_2017))
(define-fun .def_2073 () Bool (and .def_1656 .def_2072))
(define-fun .def_2074 () Bool (and .def_1692 .def_2073))
(define-fun .def_2075 () Bool (and .def_1710 .def_2074))
(define-fun .def_2076 () Bool (and .def_1784 .def_2075))
(define-fun .def_2077 () Bool (and .def_1864 .def_2076))
(define-fun .def_2078 () Bool (and .def_1535 .def_2077))
(define-fun .def_2079 () Bool (and .def_1543 .def_2078))
(define-fun .def_2080 () Bool (and .def_1550 .def_2079))
(define-fun .def_2081 () Bool (and .def_1557 .def_2080))
(define-fun .def_2107 () Bool (or .def_2081 .def_2106))
(define-fun .def_2063 () Bool (and param_e04 .def_2018))
(define-fun .def_2064 () Bool (and .def_1692 .def_2063))
(define-fun .def_2065 () Bool (and .def_1710 .def_2064))
(define-fun .def_2066 () Bool (and .def_1784 .def_2065))
(define-fun .def_2067 () Bool (and .def_1864 .def_2066))
(define-fun .def_2068 () Bool (and .def_1535 .def_2067))
(define-fun .def_2069 () Bool (and .def_1543 .def_2068))
(define-fun .def_2070 () Bool (and .def_1550 .def_2069))
(define-fun .def_2071 () Bool (and .def_1557 .def_2070))
(define-fun .def_2108 () Bool (or .def_2071 .def_2107))
(define-fun .def_2055 () Bool (and param_e05 .def_2019))
(define-fun .def_2056 () Bool (and .def_1710 .def_2055))
(define-fun .def_2057 () Bool (and .def_1784 .def_2056))
(define-fun .def_2058 () Bool (and .def_1864 .def_2057))
(define-fun .def_2059 () Bool (and .def_1535 .def_2058))
(define-fun .def_2060 () Bool (and .def_1543 .def_2059))
(define-fun .def_2061 () Bool (and .def_1550 .def_2060))
(define-fun .def_2062 () Bool (and .def_1557 .def_2061))
(define-fun .def_2109 () Bool (or .def_2062 .def_2108))
(define-fun .def_2048 () Bool (and param_e06 .def_2020))
(define-fun .def_2049 () Bool (and .def_1784 .def_2048))
(define-fun .def_2050 () Bool (and .def_1864 .def_2049))
(define-fun .def_2051 () Bool (and .def_1535 .def_2050))
(define-fun .def_2052 () Bool (and .def_1543 .def_2051))
(define-fun .def_2053 () Bool (and .def_1550 .def_2052))
(define-fun .def_2054 () Bool (and .def_1557 .def_2053))
(define-fun .def_2110 () Bool (or .def_2054 .def_2109))
(define-fun .def_2042 () Bool (and param_e07 .def_2021))
(define-fun .def_2043 () Bool (and .def_1864 .def_2042))
(define-fun .def_2044 () Bool (and .def_1535 .def_2043))
(define-fun .def_2045 () Bool (and .def_1543 .def_2044))
(define-fun .def_2046 () Bool (and .def_1550 .def_2045))
(define-fun .def_2047 () Bool (and .def_1557 .def_2046))
(define-fun .def_2111 () Bool (or .def_2047 .def_2110))
(define-fun .def_2037 () Bool (and param_e08 .def_2022))
(define-fun .def_2038 () Bool (and .def_1535 .def_2037))
(define-fun .def_2039 () Bool (and .def_1543 .def_2038))
(define-fun .def_2040 () Bool (and .def_1550 .def_2039))
(define-fun .def_2041 () Bool (and .def_1557 .def_2040))
(define-fun .def_2112 () Bool (or .def_2041 .def_2111))
(define-fun .def_2033 () Bool (and param_e09 .def_2023))
(define-fun .def_2034 () Bool (and .def_1543 .def_2033))
(define-fun .def_2035 () Bool (and .def_1550 .def_2034))
(define-fun .def_2036 () Bool (and .def_1557 .def_2035))
(define-fun .def_2113 () Bool (or .def_2036 .def_2112))
(define-fun .def_2030 () Bool (and param_e10 .def_2024))
(define-fun .def_2031 () Bool (and .def_1550 .def_2030))
(define-fun .def_2032 () Bool (and .def_1557 .def_2031))
(define-fun .def_2114 () Bool (or .def_2032 .def_2113))
(define-fun .def_2028 () Bool (and param_e11 .def_2025))
(define-fun .def_2029 () Bool (and .def_1557 .def_2028))
(define-fun .def_2115 () Bool (or .def_2029 .def_2114))
(define-fun .def_2027 () Bool (and param_e12 .def_2026))
(define-fun .def_2116 () Bool (or .def_2027 .def_2115))
(define-fun .def_2117 () Bool (= call_excludes12.excludes .def_2116))
(define-fun .def_2015 () Bool (= call__DRAGON_.mem_init call__DRAGON_.flby))
(define-fun .def_2013 () Bool (= call__DRAGON_.erreur call__DRAGON_.ite))
(define-fun .def_2011 () Bool (= call__DRAGON_.flby6 call__DRAGON_.invalid))
(define-fun .def_2009 () Bool (= call__DRAGON_.flby5 call__DRAGON_.dirty))
(define-fun .def_2007 () Bool (= call__DRAGON_.flby4 call__DRAGON_.shared_dirty))
(define-fun .def_2005 () Bool (= call__DRAGON_.flby3 call__DRAGON_.shared))
(define-fun .def_2002 () Bool (= call__DRAGON_.flby2 call__DRAGON_.exclusive))
(define-fun .def_1997 () Bool (<= 2 call__DRAGON_.exclusive))
(define-fun .def_1999 () Bool (not .def_1997))
(define-fun .def_2000 () Bool (or call__DRAGON_.ite .def_1999))
(define-fun .def_1996 () Bool (not call__DRAGON_.ite))
(define-fun .def_1998 () Bool (or .def_1996 .def_1997))
(define-fun .def_2001 () Bool (and .def_1998 .def_2000))
(define-fun .def_2003 () Bool (and .def_2001 .def_2002))
(define-fun .def_1991 () Bool (= call__DRAGON_.ite30 call__DRAGON_.ite31))
(define-fun .def_1992 () Bool (or param_e02 .def_1991))
(define-fun .def_1988 () Bool (= call__DRAGON_.ite22 call__DRAGON_.ite31))
(define-fun .def_1989 () Bool (or .def_1962 .def_1988))
(define-fun .def_1983 () Bool (= call__DRAGON_.ite20 call__DRAGON_.ite21))
(define-fun .def_1984 () Bool (or param_e02 .def_1983))
(define-fun .def_1980 () Bool (= call__DRAGON_.ite12 call__DRAGON_.ite21))
(define-fun .def_1981 () Bool (or .def_1962 .def_1980))
(define-fun .def_1975 () Bool (= call__DRAGON_.ite9 call__DRAGON_.ite10))
(define-fun .def_1976 () Bool (or param_e02 .def_1975))
(define-fun .def_1972 () Bool (= call__DRAGON_.ite3 call__DRAGON_.ite10))
(define-fun .def_1973 () Bool (or .def_1962 .def_1972))
(define-fun .def_1969 () Bool (= call__DRAGON_.ite59 call__DRAGON_.ite60))
(define-fun .def_1970 () Bool (or param_e02 .def_1969))
(define-fun .def_1966 () Bool (= call__DRAGON_.ite60 call__DRAGON_.ite47))
(define-fun .def_1967 () Bool (or .def_1962 .def_1966))
(define-fun .def_1961 () Bool (= call__DRAGON_.ite32 call__DRAGON_.ite45))
(define-fun .def_1963 () Bool (or .def_1961 .def_1962))
(define-fun .def_1958 () Bool (= call__DRAGON_.ite44 call__DRAGON_.ite45))
(define-fun .def_1960 () Bool (or .def_1958 param_e02))
(define-fun .def_1964 () Bool (and .def_1960 .def_1963))
(define-fun .def_1968 () Bool (and .def_1964 .def_1967))
(define-fun .def_1971 () Bool (and .def_1968 .def_1970))
(define-fun .def_1974 () Bool (and .def_1971 .def_1973))
(define-fun .def_1977 () Bool (and .def_1974 .def_1976))
(define-fun .def_1982 () Bool (and .def_1977 .def_1981))
(define-fun .def_1985 () Bool (and .def_1982 .def_1984))
(define-fun .def_1990 () Bool (and .def_1985 .def_1989))
(define-fun .def_1993 () Bool (and .def_1990 .def_1992))
(define-fun .def_1953 () Bool (= call__DRAGON_.ite11 call__DRAGON_.ite10))
(define-fun .def_1954 () Bool (or param_e01 .def_1953))
(define-fun .def_1949 () Bool (= call__DRAGON_.ite2 call__DRAGON_.ite11))
(define-fun .def_1950 () Bool (or .def_1944 .def_1949))
(define-fun .def_1943 () Bool (= call__DRAGON_.ite61 call__DRAGON_.ite46))
(define-fun .def_1945 () Bool (or .def_1943 .def_1944))
(define-fun .def_1939 () Bool (= call__DRAGON_.ite61 call__DRAGON_.ite60))
(define-fun .def_1941 () Bool (or .def_1939 param_e01))
(define-fun .def_1946 () Bool (and .def_1941 .def_1945))
(define-fun .def_1951 () Bool (and .def_1946 .def_1950))
(define-fun .def_1955 () Bool (and .def_1951 .def_1954))
(define-fun .def_1933 () Bool (= call__DRAGON_.ite55 call__DRAGON_.ite52))
(define-fun .def_1934 () Bool (or .def_1550 .def_1933))
(define-fun .def_1930 () Bool (= call__DRAGON_.ite54 call__DRAGON_.ite55))
(define-fun .def_1931 () Bool (or param_e11 .def_1930))
(define-fun .def_1935 () Bool (and .def_1931 .def_1934))
(define-fun .def_1926 () Bool (= call__DRAGON_.ite56 call__DRAGON_.ite51))
(define-fun .def_1927 () Bool (or .def_1543 .def_1926))
(define-fun .def_1923 () Bool (= call__DRAGON_.ite56 call__DRAGON_.ite55))
(define-fun .def_1924 () Bool (or param_e10 .def_1923))
(define-fun .def_1928 () Bool (and .def_1924 .def_1927))
(define-fun .def_1918 () Bool (= call__DRAGON_.ite57 call__DRAGON_.ite50))
(define-fun .def_1919 () Bool (or .def_1535 .def_1918))
(define-fun .def_1915 () Bool (= call__DRAGON_.ite57 call__DRAGON_.ite56))
(define-fun .def_1916 () Bool (or param_e09 .def_1915))
(define-fun .def_1920 () Bool (and .def_1916 .def_1919))
(define-fun .def_1912 () Bool (= env call_Sofar.Sofar))
(define-fun .def_1909 () Bool (= erreur call__DRAGON_.erreur))
(define-fun .def_1904 () Bool (<= invalid call_First5.First))
(define-fun .def_1774 () Bool (not env))
(define-fun .def_1905 () Bool (or .def_1774 .def_1904))
(define-fun .def_1906 () Bool (= _R14_ .def_1905))
(define-fun .def_1899 () Bool (<= dirty call_First4.First))
(define-fun .def_1900 () Bool (or .def_1774 .def_1899))
(define-fun .def_1901 () Bool (= _R13_ .def_1900))
(define-fun .def_1894 () Bool (<= shared_dirty call_First3.First))
(define-fun .def_1895 () Bool (or .def_1774 .def_1894))
(define-fun .def_1896 () Bool (= _R12_ .def_1895))
(define-fun .def_1889 () Bool (= call__DRAGON_.ite39 call__DRAGON_.ite40))
(define-fun .def_1890 () Bool (or param_e08 .def_1889))
(define-fun .def_1886 () Bool (= call__DRAGON_.ite37 call__DRAGON_.ite40))
(define-fun .def_1887 () Bool (or .def_1864 .def_1886))
(define-fun .def_1883 () Bool (= call__DRAGON_.ite27 call__DRAGON_.ite28))
(define-fun .def_1884 () Bool (or param_e08 .def_1883))
(define-fun .def_1880 () Bool (= call__DRAGON_.ite25 call__DRAGON_.ite28))
(define-fun .def_1881 () Bool (or .def_1864 .def_1880))
(define-fun .def_1877 () Bool (= call__DRAGON_.ite17 call__DRAGON_.ite18))
(define-fun .def_1878 () Bool (or param_e08 .def_1877))
(define-fun .def_1874 () Bool (= call__DRAGON_.ite18 call__DRAGON_.ite15))
(define-fun .def_1875 () Bool (or .def_1864 .def_1874))
(define-fun .def_1870 () Bool (= call__DRAGON_.ite7 call__DRAGON_.ite8))
(define-fun .def_1871 () Bool (or param_e08 .def_1870))
(define-fun .def_1867 () Bool (= call__DRAGON_.ite5 call__DRAGON_.ite8))
(define-fun .def_1868 () Bool (or .def_1864 .def_1867))
(define-fun .def_1863 () Bool (= call__DRAGON_.ite58 call__DRAGON_.ite49))
(define-fun .def_1865 () Bool (or .def_1863 .def_1864))
(define-fun .def_1859 () Bool (= call__DRAGON_.ite58 call__DRAGON_.ite57))
(define-fun .def_1861 () Bool (or .def_1859 param_e08))
(define-fun .def_1866 () Bool (and .def_1861 .def_1865))
(define-fun .def_1869 () Bool (and .def_1866 .def_1868))
(define-fun .def_1872 () Bool (and .def_1869 .def_1871))
(define-fun .def_1876 () Bool (and .def_1872 .def_1875))
(define-fun .def_1879 () Bool (and .def_1876 .def_1878))
(define-fun .def_1882 () Bool (and .def_1879 .def_1881))
(define-fun .def_1885 () Bool (and .def_1882 .def_1884))
(define-fun .def_1888 () Bool (and .def_1885 .def_1887))
(define-fun .def_1891 () Bool (and .def_1888 .def_1890))
(define-fun .def_1854 () Bool (<= shared call_First2.First))
(define-fun .def_1855 () Bool (or .def_1774 .def_1854))
(define-fun .def_1856 () Bool (= _R11_ .def_1855))
(define-fun .def_1849 () Bool (<= 0 invalid))
(define-fun .def_1850 () Bool (or .def_1774 .def_1849))
(define-fun .def_1851 () Bool (= _R10_ .def_1850))
(define-fun .def_1845 () Bool (<= 0 dirty))
(define-fun .def_1846 () Bool (or .def_1774 .def_1845))
(define-fun .def_1847 () Bool (= _R9_ .def_1846))
(define-fun .def_1841 () Bool (<= 0 shared_dirty))
(define-fun .def_1842 () Bool (or .def_1774 .def_1841))
(define-fun .def_1843 () Bool (= _R8_ .def_1842))
(define-fun .def_1837 () Bool (<= 0 exclusive))
(define-fun .def_1838 () Bool (or .def_1774 .def_1837))
(define-fun .def_1839 () Bool (= _R7_ .def_1838))
(define-fun .def_1833 () Bool (<= 0 shared))
(define-fun .def_1834 () Bool (or .def_1774 .def_1833))
(define-fun .def_1835 () Bool (= _R6_ .def_1834))
(define-fun .def_1827 () Bool (<= 1 shared))
(define-fun .def_1828 () Bool (not .def_1827))
(define-fun .def_1825 () Bool (<= 1 dirty))
(define-fun .def_1826 () Bool (not .def_1825))
(define-fun .def_1829 () Bool (or .def_1826 .def_1828))
(define-fun .def_1830 () Bool (or .def_1774 .def_1829))
(define-fun .def_1831 () Bool (= _R5_ .def_1830))
(define-fun .def_1821 () Bool (<= dirty 1))
(define-fun .def_1822 () Bool (or .def_1774 .def_1821))
(define-fun .def_1823 () Bool (= _R4_ .def_1822))
(define-fun .def_1811 () Int (* (- 1) call_First.First))
(define-fun .def_1812 () Int (+ invalid .def_1811))
(define-fun .def_1813 () Int (+ dirty .def_1812))
(define-fun .def_1814 () Int (+ shared_dirty .def_1813))
(define-fun .def_1815 () Int (+ shared .def_1814))
(define-fun .def_1816 () Int (+ exclusive .def_1815))
(define-fun .def_1817 () Bool (= .def_1816 0))
(define-fun .def_1818 () Bool (or .def_1774 .def_1817))
(define-fun .def_1819 () Bool (= _R3_ .def_1818))
(define-fun .def_1797 () Bool (or flby .def_1774))
(define-fun .def_1798 () Bool (= _R2_ .def_1797))
(define-fun .def_1793 () Bool (= call__DRAGON_.ite59 call__DRAGON_.ite58))
(define-fun .def_1794 () Bool (or param_e07 .def_1793))
(define-fun .def_1789 () Bool (= call__DRAGON_.ite48 call__DRAGON_.ite59))
(define-fun .def_1790 () Bool (or .def_1784 .def_1789))
(define-fun .def_1783 () Bool (= call__DRAGON_.ite41 call__DRAGON_.ite36))
(define-fun .def_1785 () Bool (or .def_1783 .def_1784))
(define-fun .def_1779 () Bool (= call__DRAGON_.ite41 call__DRAGON_.ite40))
(define-fun .def_1781 () Bool (or .def_1779 param_e07))
(define-fun .def_1786 () Bool (and .def_1781 .def_1785))
(define-fun .def_1791 () Bool (and .def_1786 .def_1790))
(define-fun .def_1795 () Bool (and .def_1791 .def_1794))
(define-fun .def_1772 () Bool (not erreur))
(define-fun .def_1775 () Bool (or .def_1772 .def_1774))
(define-fun .def_1776 () Bool (= _R1_ .def_1775))
(define-fun .def_1769 () Bool (= invalid call__DRAGON_.invalid))
(define-fun .def_1765 () Bool (= dirty call__DRAGON_.dirty))
(define-fun .def_1761 () Bool (= shared_dirty call__DRAGON_.shared_dirty))
(define-fun .def_1757 () Bool (= shared call__DRAGON_.shared))
(define-fun .def_1753 () Bool (= exclusive call__DRAGON_.exclusive))
(define-fun .def_1724 () Bool (and _R1_ _R2_))
(define-fun .def_1726 () Bool (and .def_1724 _R3_))
(define-fun .def_1728 () Bool (and .def_1726 _R4_))
(define-fun .def_1730 () Bool (and .def_1728 _R5_))
(define-fun .def_1732 () Bool (and .def_1730 _R6_))
(define-fun .def_1734 () Bool (and .def_1732 _R7_))
(define-fun .def_1736 () Bool (and .def_1734 _R8_))
(define-fun .def_1738 () Bool (and .def_1736 _R9_))
(define-fun .def_1740 () Bool (and .def_1738 _R10_))
(define-fun .def_1742 () Bool (and .def_1740 _R11_))
(define-fun .def_1744 () Bool (and .def_1742 _R12_))
(define-fun .def_1746 () Bool (and .def_1744 _R13_))
(define-fun .def_1748 () Bool (and .def_1746 _R14_))
(define-fun .def_1749 () Bool (= _OK_ .def_1748))
(define-fun .def_1717 () Bool (= call__DRAGON_.ite29 call__DRAGON_.ite28))
(define-fun .def_1718 () Bool (or param_e06 .def_1717))
(define-fun .def_1713 () Bool (= call__DRAGON_.ite24 call__DRAGON_.ite29))
(define-fun .def_1714 () Bool (or .def_1710 .def_1713))
(define-fun .def_1709 () Bool (= call__DRAGON_.ite19 call__DRAGON_.ite14))
(define-fun .def_1711 () Bool (or .def_1709 .def_1710))
(define-fun .def_1705 () Bool (= call__DRAGON_.ite19 call__DRAGON_.ite18))
(define-fun .def_1707 () Bool (or .def_1705 param_e06))
(define-fun .def_1712 () Bool (and .def_1707 .def_1711))
(define-fun .def_1715 () Bool (and .def_1712 .def_1714))
(define-fun .def_1719 () Bool (and .def_1715 .def_1718))
(define-fun .def_1700 () Bool (= call__DRAGON_.ite20 call__DRAGON_.ite19))
(define-fun .def_1701 () Bool (or param_e05 .def_1700))
(define-fun .def_1696 () Bool (= call__DRAGON_.ite13 call__DRAGON_.ite20))
(define-fun .def_1697 () Bool (or .def_1692 .def_1696))
(define-fun .def_1691 () Bool (= call__DRAGON_.ite42 call__DRAGON_.ite35))
(define-fun .def_1693 () Bool (or .def_1691 .def_1692))
(define-fun .def_1687 () Bool (= call__DRAGON_.ite42 call__DRAGON_.ite41))
(define-fun .def_1689 () Bool (or .def_1687 param_e05))
(define-fun .def_1694 () Bool (and .def_1689 .def_1693))
(define-fun .def_1698 () Bool (and .def_1694 .def_1697))
(define-fun .def_1702 () Bool (and .def_1698 .def_1701))
(define-fun .def_1682 () Bool (= call__DRAGON_.ite9 call__DRAGON_.ite8))
(define-fun .def_1683 () Bool (or param_e03 .def_1682))
(define-fun .def_1678 () Bool (= call__DRAGON_.ite4 call__DRAGON_.ite9))
(define-fun .def_1679 () Bool (or .def_1673 .def_1678))
(define-fun .def_1672 () Bool (= call__DRAGON_.ite44 call__DRAGON_.ite33))
(define-fun .def_1674 () Bool (or .def_1672 .def_1673))
(define-fun .def_1668 () Bool (= call__DRAGON_.ite43 call__DRAGON_.ite44))
(define-fun .def_1670 () Bool (or .def_1668 param_e03))
(define-fun .def_1675 () Bool (and .def_1670 .def_1674))
(define-fun .def_1680 () Bool (and .def_1675 .def_1679))
(define-fun .def_1684 () Bool (and .def_1680 .def_1683))
(define-fun .def_1664 () Bool (= call__DRAGON_.ite30 call__DRAGON_.ite29))
(define-fun .def_1665 () Bool (or param_e04 .def_1664))
(define-fun .def_1660 () Bool (= call__DRAGON_.ite23 call__DRAGON_.ite30))
(define-fun .def_1661 () Bool (or .def_1656 .def_1660))
(define-fun .def_1655 () Bool (= call__DRAGON_.ite43 call__DRAGON_.ite34))
(define-fun .def_1657 () Bool (or .def_1655 .def_1656))
(define-fun .def_1651 () Bool (= call__DRAGON_.ite43 call__DRAGON_.ite42))
(define-fun .def_1653 () Bool (or .def_1651 param_e04))
(define-fun .def_1658 () Bool (and .def_1653 .def_1657))
(define-fun .def_1662 () Bool (and .def_1658 .def_1661))
(define-fun .def_1666 () Bool (and .def_1662 .def_1665))
(define-fun .def_1685 () Bool (and .def_1666 .def_1684))
(define-fun .def_1703 () Bool (and .def_1685 .def_1702))
(define-fun .def_1720 () Bool (and .def_1703 .def_1719))
(define-fun .def_1750 () Bool (and .def_1720 .def_1749))
(define-fun .def_1754 () Bool (and .def_1750 .def_1753))
(define-fun .def_1758 () Bool (and .def_1754 .def_1757))
(define-fun .def_1762 () Bool (and .def_1758 .def_1761))
(define-fun .def_1766 () Bool (and .def_1762 .def_1765))
(define-fun .def_1770 () Bool (and .def_1766 .def_1769))
(define-fun .def_1777 () Bool (and .def_1770 .def_1776))
(define-fun .def_1796 () Bool (and .def_1777 .def_1795))
(define-fun .def_1799 () Bool (and .def_1796 .def_1798))
(define-fun .def_1820 () Bool (and .def_1799 .def_1819))
(define-fun .def_1824 () Bool (and .def_1820 .def_1823))
(define-fun .def_1832 () Bool (and .def_1824 .def_1831))
(define-fun .def_1836 () Bool (and .def_1832 .def_1835))
(define-fun .def_1840 () Bool (and .def_1836 .def_1839))
(define-fun .def_1844 () Bool (and .def_1840 .def_1843))
(define-fun .def_1848 () Bool (and .def_1844 .def_1847))
(define-fun .def_1852 () Bool (and .def_1848 .def_1851))
(define-fun .def_1857 () Bool (and .def_1852 .def_1856))
(define-fun .def_1892 () Bool (and .def_1857 .def_1891))
(define-fun .def_1897 () Bool (and .def_1892 .def_1896))
(define-fun .def_1902 () Bool (and .def_1897 .def_1901))
(define-fun .def_1907 () Bool (and .def_1902 .def_1906))
(define-fun .def_1910 () Bool (and .def_1907 .def_1909))
(define-fun .def_1913 () Bool (and .def_1910 .def_1912))
(define-fun .def_1921 () Bool (and .def_1913 .def_1920))
(define-fun .def_1929 () Bool (and .def_1921 .def_1928))
(define-fun .def_1936 () Bool (and .def_1929 .def_1935))
(define-fun .def_1956 () Bool (and .def_1936 .def_1955))
(define-fun .def_1994 () Bool (and .def_1956 .def_1993))
(define-fun .def_2004 () Bool (and .def_1994 .def_2003))
(define-fun .def_2006 () Bool (and .def_2004 .def_2005))
(define-fun .def_2008 () Bool (and .def_2006 .def_2007))
(define-fun .def_2010 () Bool (and .def_2008 .def_2009))
(define-fun .def_2012 () Bool (and .def_2010 .def_2011))
(define-fun .def_2014 () Bool (and .def_2012 .def_2013))
(define-fun .def_2016 () Bool (and .def_2014 .def_2015))
(define-fun .def_2118 () Bool (and .def_2016 .def_2117))
(define-fun .def_2120 () Bool (and .def_2118 .def_2119))
(define-fun .def_2122 () Bool (and .def_2120 .def_2121))
(define-fun .def_2124 () Bool (and .def_2122 .def_2123))
(define-fun .def_2126 () Bool (and .def_2124 .def_2125))
(define-fun .def_2128 () Bool (and .def_2126 .def_2127))
(define-fun .def_2130 () Bool (and .def_2128 .def_2129))
(define-fun .def_1647 () Bool (= param_init_invalid call_First5.flby))
(define-fun .def_1644 () Bool (= param_init_invalid call_First4.flby))
(define-fun .def_1641 () Bool (= param_init_invalid call_First3.flby))
(define-fun .def_1638 () Bool (= param_init_invalid call_First2.flby))
(define-fun .def_1635 () Bool (= param_init_invalid call_First.flby))
(define-fun .def_1627 () Bool (<= param_init_invalid 0))
(define-fun .def_1628 () Bool (not .def_1627))
(define-fun .def_1630 () Bool (and .def_1628 call_excludes12.excludes))
(define-fun .def_1632 () Bool (= .def_1630 call_Sofar.flby))
(define-fun .def_1625 () Bool (= call__DRAGON_.flby4 0))
(define-fun .def_1622 () Bool (= call__DRAGON_.flby3 0))
(define-fun .def_1619 () Bool (= call__DRAGON_.flby2 0))
(define-fun .def_1616 () Bool (= param_init_invalid call__DRAGON_.flby))
(define-fun .def_1610 () Bool (= call__DRAGON_.ite37 0))
(define-fun .def_1603 () Bool (not call__DRAGON_.g08))
(define-fun .def_1611 () Bool (or .def_1603 .def_1610))
(define-fun .def_1606 () Bool (= call__DRAGON_.ite5 0))
(define-fun .def_1607 () Bool (or .def_1603 .def_1606))
(define-fun .def_1601 () Bool (= call__DRAGON_.ite25 1))
(define-fun .def_1604 () Bool (or .def_1601 .def_1603))
(define-fun .def_1608 () Bool (and .def_1604 .def_1607))
(define-fun .def_1612 () Bool (and .def_1608 .def_1611))
(define-fun .def_1597 () Bool (= call__DRAGON_.ite24 1))
(define-fun .def_1595 () Bool (not call__DRAGON_.g06))
(define-fun .def_1598 () Bool (or .def_1595 .def_1597))
(define-fun .def_1591 () Bool (= call__DRAGON_.ite13 0))
(define-fun .def_1589 () Bool (not call__DRAGON_.g05))
(define-fun .def_1592 () Bool (or .def_1589 .def_1591))
(define-fun .def_1585 () Bool (= call__DRAGON_.ite23 0))
(define-fun .def_1583 () Bool (not call__DRAGON_.g04))
(define-fun .def_1586 () Bool (or .def_1583 .def_1585))
(define-fun .def_1578 () Bool (= call__DRAGON_.ite3 0))
(define-fun .def_1575 () Bool (not call__DRAGON_.g02))
(define-fun .def_1579 () Bool (or .def_1575 .def_1578))
(define-fun .def_1573 () Bool (= call__DRAGON_.ite32 0))
(define-fun .def_1576 () Bool (or .def_1573 .def_1575))
(define-fun .def_1580 () Bool (and .def_1576 .def_1579))
(define-fun .def_1570 () Bool (= call__DRAGON_.flby6 call__DRAGON_.mem_init))
(define-fun .def_1566 () Bool (= call__DRAGON_.flby5 0))
(define-fun .def_1561 () Bool (= call__DRAGON_.ite53 call__DRAGON_.ite54))
(define-fun .def_1562 () Bool (or .def_1557 .def_1561))
(define-fun .def_1555 () Bool (= call__DRAGON_.ite6 call__DRAGON_.ite7))
(define-fun .def_1558 () Bool (or .def_1555 .def_1557))
(define-fun .def_1563 () Bool (and .def_1558 .def_1562))
(define-fun .def_1548 () Bool (= call__DRAGON_.ite26 call__DRAGON_.ite27))
(define-fun .def_1551 () Bool (or .def_1548 .def_1550))
(define-fun .def_1541 () Bool (= call__DRAGON_.ite16 call__DRAGON_.ite17))
(define-fun .def_1544 () Bool (or .def_1541 .def_1543))
(define-fun .def_1533 () Bool (= call__DRAGON_.ite38 call__DRAGON_.ite39))
(define-fun .def_1536 () Bool (or .def_1533 .def_1535))
(define-fun .def_1538 () Bool (and .def_1536 flby))
(define-fun .def_1545 () Bool (and .def_1538 .def_1544))
(define-fun .def_1552 () Bool (and .def_1545 .def_1551))
(define-fun .def_1564 () Bool (and .def_1552 .def_1563))
(define-fun .def_1567 () Bool (and .def_1564 .def_1566))
(define-fun .def_1571 () Bool (and .def_1567 .def_1570))
(define-fun .def_1581 () Bool (and .def_1571 .def_1580))
(define-fun .def_1587 () Bool (and .def_1581 .def_1586))
(define-fun .def_1593 () Bool (and .def_1587 .def_1592))
(define-fun .def_1599 () Bool (and .def_1593 .def_1598))
(define-fun .def_1613 () Bool (and .def_1599 .def_1612))
(define-fun .def_1617 () Bool (and .def_1613 .def_1616))
(define-fun .def_1620 () Bool (and .def_1617 .def_1619))
(define-fun .def_1623 () Bool (and .def_1620 .def_1622))
(define-fun .def_1626 () Bool (and .def_1623 .def_1625))
(define-fun .def_1633 () Bool (and .def_1626 .def_1632))
(define-fun .def_1636 () Bool (and .def_1633 .def_1635))
(define-fun .def_1639 () Bool (and .def_1636 .def_1638))
(define-fun .def_1642 () Bool (and .def_1639 .def_1641))
(define-fun .def_1645 () Bool (and .def_1642 .def_1644))
(define-fun .def_1648 () Bool (and .def_1645 .def_1647))
(define-fun .def_2131 () Bool (and .def_1648 .def_2130))
(assert .def_2131)
